/*********************************************
 * OPL 12.6.0.0 Data
 * Author: Adrian Rodriguez Bazaga, Pau Rodriguez Esmerats
 * Creation Date: 06/12/2017 at 23:03:11
 *********************************************/

nNurses=272;
maxConsec=2;
maxPresence=7;
maxHours=5;
minHours=1;
hours=24;
demand= [40 41 65 62 41 65 62 46 48 30 5 12 7 15 10 10 6 7 5 3 41 83 45 59  ];
